Route #1: 1 1 17 19 10 12 21 15 1 
Route #2: 1 13 7 28 26 25 3 24 9 8 27 11 20 23 14 1 
Route #3: 1 22 33 4 16 34 29 32 31 18 1 
Route #4: 1 36 30 35 2 5 1 
Route #5: 1 6 1 

Cost 1078.45
Time 0.2127


 * Another infos *

 Iterations: 37 Time: 0.2127 sec - 0.0035 min - 0.0001 horas
0.0000 h 0.0035 min
Problem dimension: 37
